# Initial baro-thermostat run
# Includes variables for liquid density and pressure components
# variable filename string 240415a # Read from the command line
variable datafile string ${filename}_lj.dat

log ${filename}.log

boundary p p p
units lj
atom_style atomic

variable T equal 0.3305/40*150
#variable T equal 

variable Tdamp equal 1.0 # In femtoseconds
variable Tdamp2 equal 10.0 # In femtoseconds
variable Pdamp equal 1.0

variable Pxx equal 1.1806 # 50 MPa
variable Pyy equal ${Pxx}

# pair_style meam
pair_style lj/cut 2.5 # 9.8
read_data ${datafile}
# pair_coeff * * /wrk/kisaaski/lammps/mylammps/potentials/library.meam Au NULL Au Au Au

pair_coeff 1 1 1.0 1.0 

pair_modify tail no

neighbor 0.5 bin
#neigh_modify delay 0 every 1

timestep 0.002 # For initial integration

# How many steps for equilibration
variable steps_equil equal 250000
# How many steps for the collectipn run
variable steps_simu equal 500000

thermo_style custom step temp ke press density cpu cpuremain

group liquid union all all

fix 1 all nve/limit 0.01

fix DAMP all langevin ${T} ${T} 0.1 12223 tally yes
dump start all xyz 10 ${filename}_start0.xyz

thermo 10
run 1000
undump start
unfix 1
# unfix DAMP

timestep 0.002
# FIXES
thermo 1000
# velocity fixed set 0 0 0
# fix NVE mobile nve
fix NVT all langevin ${T} ${T} ${Tdamp} 9348734 # zero yes

fix NPH all nph x ${Pxx} ${Pxx} ${Pdamp} y ${Pyy} ${Pyy} ${Pdamp} z ${Pyy} ${Pyy} ${Pdamp} # couple yz

# fix NPT all npt temp ${T} ${T} ${Tdamp} x ${Pxx} ${Pxx} ${Pdamp} y ${Pyy} ${Pyy} ${Pdamp} z ${Pyy} ${Pyy} ${Pdamp} couple yz

dump start_coords all custom 1000 ${filename}_start.lammpstrj id type x y z # ix iy iz
dump start all xyz 1000 ${filename}_start.xyz
# dump_modify start element O H

thermo_style custom step temp etotal press density cpu cpuremain

# fix PRINT all print 100 "${px_liquid} ${py_liquid} ${pressure} ${xliquid} ${rho_liquid}" file ${filename}.params_equil.dat screen no title "${px_liquid} ${py_liquid} ${pressure} ${xliquid} ${rho_liquid}"
velocity all zero linear
# fix temps_equil all ave/chunk 100 10 1000 chunk temp file ${filename}.temp_equil.dat ave running overwrite title1 "Chunk temperatures"

run ${steps_equil}
# unfix PRINT
# quit
unfix NPH
unfix NVT
undump start_coords
undump start

write_restart ${filename}.equil.restart

thermo 1000
# Keep the box periodic to avoid losing atoms
# change_box all boundary f p p
velocity all zero linear
fix NVE all nve
# Hot bath
fix NVT all langevin ${T} ${T} ${Tdamp2} 12223 tally yes # gjf yes

dump steady_coords all custom 1000 ${filename}_simu.lammpstrj id type x y z

dump vels all custom 10 ${filename}.vels_liquid.dat id vx vy vz
dump_modify vels sort id

run ${steps_simu}
# unfix PRINT

quit
