# Initial baro-thermostat run
# Includes variables for liquid density and pressure components
# variable filename string 240415a # Read from the command line
variable datafile string ${filename}_H2O.dat

log ${filename}.log

boundary p p p
units real
atom_style full

#variable T equal 0.3305/40*10
variable T equal 300

variable Tdamp equal 1000.0 # In femtoseconds
variable Tdamp2 equal 10000.0 # In femtoseconds
variable Pdamp equal 1000.0

variable Pxx equal 80.0 # 80 bars (Merabia, 2009)
variable Pyy equal ${Pxx}

# pair_style meam
pair_style lj/cut/coul/long 9.0 # 9.8
read_data ${datafile}
# pair_coeff * * /wrk/kisaaski/lammps/mylammps/potentials/library.meam Au NULL Au Au Au

pair_coeff 1 1 0.15535 3.166 # O-O
pair_coeff 1*2 2 0.0 1.0 # O-H and H-H

kspace_style pppm 1.0e-4
pair_modify tail no

bond_style	harmonic
angle_style	harmonic
dihedral_style	none
improper_style	none

bond_coeff	1 100.00 1.000
angle_coeff	1 100.0 109.47

special_bonds   lj/coul 0.0 0.0 0.5

neighbor 2.0 bin
#neigh_modify delay 0 every 1

timestep 0.025 # For initial integration

# How many steps for equilibration
variable steps_equil equal 250000
# How many steps for the collectipn run
variable steps_simu equal 500000

thermo_style custom step temp ke press density cpu cpuremain

group liquid union all all

fix 1 all nve

fix DAMP all langevin ${T} ${T} 10 12223 tally yes
fix SHAKE liquid shake 0.0001 20 0 b 1 a 1
dump start all xyz 10 ${filename}_start0.xyz
dump_modify start element O H

thermo 10
run 100
undump start
unfix 1
unfix DAMP
unfix SHAKE
# quit

timestep 1.0
# FIXES
thermo 1000
# velocity fixed set 0 0 0
# fix NVE mobile nve
fix NVT all langevin ${T} ${T} ${Tdamp} 9348734 # zero yes
fix SHAKE liquid shake 0.0001 20 10000 b 1 a 1
fix NPH all nph x ${Pxx} ${Pxx} ${Pdamp} y ${Pyy} ${Pyy} ${Pdamp} z ${Pyy} ${Pyy} ${Pdamp} # couple yz

# fix NPT all npt temp ${T} ${T} ${Tdamp} x ${Pxx} ${Pxx} ${Pdamp} y ${Pyy} ${Pyy} ${Pdamp} z ${Pyy} ${Pyy} ${Pdamp} couple yz

dump start_coords all custom 1000 ${filename}_start.lammpstrj id type x y z # ix iy iz
dump start all xyz 1000 ${filename}_start.xyz
dump_modify start element O H

thermo_style custom step temp etotal press density cpu cpuremain

# fix PRINT all print 100 "${px_liquid} ${py_liquid} ${pressure} ${xliquid} ${rho_liquid}" file ${filename}.params_equil.dat screen no title "${px_liquid} ${py_liquid} ${pressure} ${xliquid} ${rho_liquid}"
velocity all zero linear
# fix temps_equil all ave/chunk 100 10 1000 chunk temp file ${filename}.temp_equil.dat ave running overwrite title1 "Chunk temperatures"

run ${steps_equil}
# unfix PRINT
# quit
unfix NPH
unfix NVT
unfix SHAKE
undump start_coords
undump start

write_restart ${filename}.equil.restart

thermo 1000
# Keep the box periodic to avoid losing atoms
# change_box all boundary f p p
velocity all zero linear
fix NVE all nve
# Hot bath
fix NVT all langevin ${T} ${T} ${Tdamp2} 12223 tally yes # gjf yes

dump steady_coords all custom 1000 ${filename}_steady.lammpstrj id type x y z

fix SHAKE liquid shake 0.0001 20 10000 b 1 a 1

dump vels all custom 10 ${filename}.vels_liquid.dat id vx vy vz
dump_modify vels sort id

run ${steps_simu}
# unfix PRINT

quit
undump steady_coords
unfix Ts
unfix temps_steady
unfix temps_steady_run
unfix temps_liquid
uncompute chunk
unfix aveinput_start
unfix aveinput_cold_start

# quit

write_restart ${filename}.steadystate.restart
# quit
fix aveinput hot ave/time 1 1 100 f_HOT ave one file ${filename}.aveinput_hot.dat
fix aveinput_cold cold ave/time 1 1 100 f_COLD ave one file ${filename}.aveinput_cold.dat

compute chunk2 all chunk/atom bin/1d x 0.0 0.5

fix density all ave/chunk 100 10 1000 chunk2 density/number ave running file ${filename}.density.dat overwrite title1 "Number density"

fix massdensity all ave/chunk 100 10 1000 chunk2 density/mass ave running file ${filename}.density_mass.dat overwrite title1 "Mass density"

compute chunk all chunk/atom bin/1d x 0.0 2.0

fix Ts all ave/chunk 100 10 1000 chunk v_Ti v_Ti2 file ${filename}.Ti.dat ave running overwrite title1 "Atomic temperatures"

fix temps all ave/chunk 100 10 1000 chunk temp file ${filename}.temp.dat ave running overwrite title1 "Chunk temperatures"

fix temps_liquid liquid ave/chunk 100 10 1000 chunk temp file ${filename}.temp_liquid.dat ave running overwrite title1 "Chunk temperatures" adof 2

fix temps_solid solid ave/chunk 100 10 1000 chunk temp file ${filename}.temp_solid.dat ave running overwrite title1 "Chunk temperatures" 

dump simu_coords all custom 10000 ${filename}_simu.lammpstrj id type x y z

thermo 1000
variable dt_dump equal 50
dump dumppaus interface_and_liquid custom ${dt_dump} ${filename}.dump id x y z vx vy vz ix iy iz

restart 10000000 ${filename}.*.restart

run ${steps_simu}

undump dumppaus
undump simu_coords
unfix Ts
unfix temps
unfix temps_liquid
unfix temps_solid
unfix density
unfix massdensity
uncompute chunk
uncompute chunk2
unfix aveinput
unfix aveinput_cold
unfix HOT
unfix COLD
unfix NVE
unfix SHAKE

write_restart ${filename}.end.restart

# quit

# Rerun, can be made in another file by restarting
neigh_modify exclude type 1 1
neigh_modify exclude type 2 2
neigh_modify exclude type 3 3
neigh_modify exclude type 3 4
neigh_modify exclude type 4 4

# Calculate the forces on interface atoms
dump dumpFV_L interfaceL custom 10 ${filename}.Fv.dat id fx fy fz vx vy vz
dump dumpFV_R interfaceR custom 10 ${filename}_2.Fv.dat id fx fy fz vx vy vz
dump_modify dumpFV_L sort id
dump_modify dumpFV_R sort id
thermo 1000

thermo_style custom step temp etotal cpu
rerun ${filename}.dump dump x y z vx vy vz ix iy iz replace yes format native
